g9 3 1 0 15 20190616 0 4 0 4	# problem tp116
 13 15 1 0 0	# vars, constraints, objectives, ranges, eqns
 10 0	# nonlinear constraints, objectives
 0 0	# network constraints: nonlinear, linear
 10 0 0	# nonlinear vars in constraints, objectives, both
 0 0 0 1	# linear network variables; functions; arith, flags
 0 0 0 0 0	# discrete variables: binary, integer, nonlinear (b,c,o)
 46 3	# nonzeros in Jacobian, gradients
 0 0	# max name lengths: constraints, variables
 0 0 0 10 0	# common exprs: b,c,o,c1,o1
b
0 0.1 1
0 0.1 1
0 0.1 1
0 0.0001 0.1
0 0.1 0.9
0 0.1 0.9
0 0.1 1000
0 0.1 1000
0 500 1000
0 0.1 500
0 1 150
0 0.0001 150
0 0.0001 150
x13
0 0.5
1 0.8
2 0.9
3 0.1
4 0.14
5 0.5
6 489
7 80
8 650
9 450
10 150
11 150
12 150
r
2 0
2 0
2 0
2 0
2 -1
2 0
2 0.9
2 0
2 0
2 0
2 0
2 0
2 -1
2 50
2 -250
V13 0 1
o2
o2
n1.231059
v2
v9
C0
v13
V14 0 2
o1
o2
n0.00975
o5
v1
n2
o2
o2
n0.975
v1
v4
C1
v14
V15 0 3
o1
o2
n0.00975
o5
v2
n2
o2
o2
n0.975
v2
v5
C2
v15
V16 0 4
o54
4
o2
v4
v6
o16
o2
v0
v7
o16
o2
v3
v6
o2
v3
v7
C3
v16
V17 0 5
o54
4
o2
n-0.002
o2
v1
v8
o2
n-0.002
o2
v4
v7
o2
n0.002
o2
v0
v7
o2
n0.002
o2
v5
v8
C4
v17
V18 0 6
o54
4
o2
v1
v8
o16
o2
v2
v9
o16
o2
v5
v8
o2
v1
v9
C5
v18
V19 0 7
o0
o2
n-0.002
o2
v1
v9
o2
n0.002
o2
v2
v9
C6
v19
V20 0 8
o1
o2
n0.00975
o5
v0
n2
o2
o2
n0.975
v0
v3
C7
v20
V21 0 9
o2
o2
n1.231059
v0
v7
C8
v21
V22 0 10
o2
o2
n1.231059
v1
v8
C9
v22
C10
n0
C11
n0
C12
n0
C13
n0
C14
n0
O0 0
n0
k12
5
12
17
19
22
25
27
31
34
37
40
43
J0 3
2 0
9 -1.262626
12 1
J1 2
1 -0.03475
4 1
J2 2
2 -0.03475
5 1
J3 5
0 0
3 0
4 0
6 0
7 0
J4 6
0 0
1 0
4 -1
5 -1
7 0
8 0
J5 5
1 -500
2 0
5 500
8 0
9 0
J6 3
1 1
2 0
9 0
J7 2
0 -0.03475
3 1
J8 3
0 0
7 -1.262626
10 1
J9 3
1 0
8 -1.262626
11 1
J10 2
1 -1
2 1
J11 2
0 -1
1 1
J12 2
6 -0.002
7 0.002
J13 3
10 1
11 1
12 1
J14 3
10 -1
11 -1
12 -1
G0 3
10 1
11 1
12 1
